instances/knapsack/discrete/knapsack_50_6.lp
\ Model knapsack_50_6
\ LP format - for model browsing. Use MPS format to capture full model detail.
\ Signature: 0xe2d4f45d0ac270ee
Minimize
  - 33 x[0] - 90 x[1] - 27 x[2] - 79 x[3] - 93 x[4] - 72 x[5] - 69 x[6]
   - 43 x[7] - 14 x[8] - 58 x[9] - 26 x[10] - 54 x[11] - 46 x[12]
   - 17 x[13] - 54 x[14] - 11 x[15] - 57 x[16] - 33 x[17] - 50 x[18]
   - 73 x[19] - 25 x[20] - 6 x[21] - 79 x[22] - 27 x[23] - 68 x[24]
   - 78 x[25] - 15 x[26] - 79 x[27] - 49 x[28] - 40 x[29] - 24 x[30]
   - 67 x[31] - 75 x[32] - 86 x[33] - 63 x[34] - 28 x[35] - 96 x[36]
   - 34 x[37] - 86 x[38] - 71 x[39] - 23 x[40] - 13 x[41] - 65 x[42]
   - 14 x[43] - 98 x[44] - 74 x[45] - 48 x[46] - 48 x[47] - 80 x[48]
   - 17 x[49]
Subject To
 primal_upper: 63 x[0] + 31 x[1] + 9 x[2] + 22 x[3] + 99 x[4] + 61 x[5]
   + 48 x[6] + 23 x[7] + 40 x[8] + 33 x[9] + 67 x[10] + 50 x[11] + 75 x[12]
   + 19 x[13] + 36 x[14] + 72 x[15] + 100 x[16] + 11 x[17] + 60 x[18]
   + 53 x[19] + 28 x[20] + 19 x[21] + 35 x[22] + 66 x[23] + 76 x[24]
   + 99 x[25] + 85 x[26] + 47 x[27] + x[28] + 14 x[29] + 13 x[30]
   + 79 x[31] + 79 x[32] + 100 x[33] + 51 x[34] + 32 x[35] + 51 x[36]
   + 52 x[37] + 15 x[38] + 98 x[39] + 70 x[40] + 81 x[41] + 65 x[42]
   + 69 x[43] + 26 x[44] + 86 x[45] + 21 x[46] + 29 x[47] + 2 x[48]
   + 19 x[49] + 6.3 r[0] + 3.1 r[1] + 0.9 r[2] + 2.2 r[3] + 9.9 r[4]
   + 6.1 r[5] + 4.8 r[6] + 2.3 r[7] + 4 r[8] + 3.3 r[9] + 6.7 r[10]
   + 5 r[11] + 7.5 r[12] + 1.9 r[13] + 3.6 r[14] + 7.2 r[15] + 10 r[16]
   + 1.1 r[17] + 6 r[18] + 5.3 r[19] + 2.8 r[20] + 1.9 r[21] + 3.5 r[22]
   + 6.6 r[23] + 7.6 r[24] + 9.9 r[25] + 8.5 r[26] + 4.7 r[27] + 0.1 r[28]
   + 1.4 r[29] + 1.3 r[30] + 7.9 r[31] + 7.9 r[32] + 10 r[33] + 5.1 r[34]
   + 3.2 r[35] + 5.1 r[36] + 5.2 r[37] + 1.5 r[38] + 9.8 r[39] + 7 r[40]
   + 8.1 r[41] + 6.5 r[42] + 6.9 r[43] + 2.6 r[44] + 8.6 r[45] + 2.1 r[46]
   + 2.9 r[47] + 0.2 r[48] + 1.9 r[49] <= 236
 primal_lower: 0.1219879583709251 x[0] + 1.225031600379439 x[1]
   + 1.279069674186734 x[2] + 0.6978073940112813 x[3]
   + 4.729509339940011 x[4] + 2.758616003876603 x[5]
   + 3.705670774336131 x[6] + 0.2875843112749705 x[7]
   + 0.7582990234489881 x[8] + 0.9241006648841531 x[9]
   + 1.053898299951447 x[10] + 0.9819676235670419 x[11]
   + 2.41570890962411 x[12] + 2.157581597247097 x[13]
   + 4.534309356122297 x[14] + 3.821631520260112 x[15]
   + 4.633282687883368 x[16] + 4.326519941947729 x[17]
   + 0.9006609162225336 x[18] + 1.588176593632915 x[19]
   + 1.900869318533137 x[20] + 2.76534147156429 x[21]
   + 0.7551273598243422 x[22] + 4.565260336095131 x[23]
   + 3.550860826734689 x[24] + 1.83485160490525 x[25]
   + 0.3118955372543912 x[26] + 4.245942553647777 x[27]
   + 2.181247690278286 x[28] + 3.805122740299467 x[29]
   + 3.615770037644721 x[30] + 1.364602156835755 x[31]
   + 1.693305382138741 x[32] + 2.389986164979277 x[33]
   + 0.5528045340853089 x[34] + 1.721052124287748 x[35]
   + 2.879595037808702 x[36] + 3.360058632447192 x[37]
   + 4.207969897095087 x[38] + 3.403031799004224 x[39]
   + 2.942499572229012 x[40] + 1.531153444226876 x[41]
   + 1.731017301528114 x[42] + 4.503074494653168 x[43]
   + 3.169060881067382 x[44] + 3.773429026464658 x[45]
   + 4.700570488481943 x[46] + 1.010483542839353 x[47]
   + 0.0524257483112918 x[48] + 4.086131116130178 x[49] + 39 u[0] + 71 u[1]
   + 57 u[2] + 10 u[3] + 15 u[4] + 29 u[5] + 48 u[6] + 15 u[7] + 8 u[8]
   + 65 u[9] + 59 u[10] + 58 u[11] + 59 u[12] + 63 u[13] + 72 u[14]
   + 100 u[15] + 44 u[16] + 75 u[17] + 48 u[18] + 93 u[19] + 56 u[20]
   + 47 u[21] + 39 u[22] + 66 u[23] + 16 u[24] + 35 u[25] + 49 u[26]
   + 75 u[27] + u[28] + 86 u[29] + 49 u[30] + 87 u[31] + 91 u[32]
   + 92 u[33] + 7 u[34] + 20 u[35] + 75 u[36] + 72 u[37] + 91 u[38]
   + 90 u[39] + 10 u[40] + 57 u[41] + 5 u[42] + 69 u[43] + 74 u[44]
   + 54 u[45] + 81 u[46] + 85 u[47] + 62 u[48] + 51 u[49] <= 70296
 mccormick1[0]: - u[0] + r[0] <= 0
 mccormick1[1]: - u[1] + r[1] <= 0
 mccormick1[2]: - u[2] + r[2] <= 0
 mccormick1[3]: - u[3] + r[3] <= 0
 mccormick1[4]: - u[4] + r[4] <= 0
 mccormick1[5]: - u[5] + r[5] <= 0
 mccormick1[6]: - u[6] + r[6] <= 0
 mccormick1[7]: - u[7] + r[7] <= 0
 mccormick1[8]: - u[8] + r[8] <= 0
 mccormick1[9]: - u[9] + r[9] <= 0
 mccormick1[10]: - u[10] + r[10] <= 0
 mccormick1[11]: - u[11] + r[11] <= 0
 mccormick1[12]: - u[12] + r[12] <= 0
 mccormick1[13]: - u[13] + r[13] <= 0
 mccormick1[14]: - u[14] + r[14] <= 0
 mccormick1[15]: - u[15] + r[15] <= 0
 mccormick1[16]: - u[16] + r[16] <= 0
 mccormick1[17]: - u[17] + r[17] <= 0
 mccormick1[18]: - u[18] + r[18] <= 0
 mccormick1[19]: - u[19] + r[19] <= 0
 mccormick1[20]: - u[20] + r[20] <= 0
 mccormick1[21]: - u[21] + r[21] <= 0
 mccormick1[22]: - u[22] + r[22] <= 0
 mccormick1[23]: - u[23] + r[23] <= 0
 mccormick1[24]: - u[24] + r[24] <= 0
 mccormick1[25]: - u[25] + r[25] <= 0
 mccormick1[26]: - u[26] + r[26] <= 0
 mccormick1[27]: - u[27] + r[27] <= 0
 mccormick1[28]: - u[28] + r[28] <= 0
 mccormick1[29]: - u[29] + r[29] <= 0
 mccormick1[30]: - u[30] + r[30] <= 0
 mccormick1[31]: - u[31] + r[31] <= 0
 mccormick1[32]: - u[32] + r[32] <= 0
 mccormick1[33]: - u[33] + r[33] <= 0
 mccormick1[34]: - u[34] + r[34] <= 0
 mccormick1[35]: - u[35] + r[35] <= 0
 mccormick1[36]: - u[36] + r[36] <= 0
 mccormick1[37]: - u[37] + r[37] <= 0
 mccormick1[38]: - u[38] + r[38] <= 0
 mccormick1[39]: - u[39] + r[39] <= 0
 mccormick1[40]: - u[40] + r[40] <= 0
 mccormick1[41]: - u[41] + r[41] <= 0
 mccormick1[42]: - u[42] + r[42] <= 0
 mccormick1[43]: - u[43] + r[43] <= 0
 mccormick1[44]: - u[44] + r[44] <= 0
 mccormick1[45]: - u[45] + r[45] <= 0
 mccormick1[46]: - u[46] + r[46] <= 0
 mccormick1[47]: - u[47] + r[47] <= 0
 mccormick1[48]: - u[48] + r[48] <= 0
 mccormick1[49]: - u[49] + r[49] <= 0
 mccormick2[0]: - x[0] + r[0] <= 0
 mccormick2[1]: - x[1] + r[1] <= 0
 mccormick2[2]: - x[2] + r[2] <= 0
 mccormick2[3]: - x[3] + r[3] <= 0
 mccormick2[4]: - x[4] + r[4] <= 0
 mccormick2[5]: - x[5] + r[5] <= 0
 mccormick2[6]: - x[6] + r[6] <= 0
 mccormick2[7]: - x[7] + r[7] <= 0
 mccormick2[8]: - x[8] + r[8] <= 0
 mccormick2[9]: - x[9] + r[9] <= 0
 mccormick2[10]: - x[10] + r[10] <= 0
 mccormick2[11]: - x[11] + r[11] <= 0
 mccormick2[12]: - x[12] + r[12] <= 0
 mccormick2[13]: - x[13] + r[13] <= 0
 mccormick2[14]: - x[14] + r[14] <= 0
 mccormick2[15]: - x[15] + r[15] <= 0
 mccormick2[16]: - x[16] + r[16] <= 0
 mccormick2[17]: - x[17] + r[17] <= 0
 mccormick2[18]: - x[18] + r[18] <= 0
 mccormick2[19]: - x[19] + r[19] <= 0
 mccormick2[20]: - x[20] + r[20] <= 0
 mccormick2[21]: - x[21] + r[21] <= 0
 mccormick2[22]: - x[22] + r[22] <= 0
 mccormick2[23]: - x[23] + r[23] <= 0
 mccormick2[24]: - x[24] + r[24] <= 0
 mccormick2[25]: - x[25] + r[25] <= 0
 mccormick2[26]: - x[26] + r[26] <= 0
 mccormick2[27]: - x[27] + r[27] <= 0
 mccormick2[28]: - x[28] + r[28] <= 0
 mccormick2[29]: - x[29] + r[29] <= 0
 mccormick2[30]: - x[30] + r[30] <= 0
 mccormick2[31]: - x[31] + r[31] <= 0
 mccormick2[32]: - x[32] + r[32] <= 0
 mccormick2[33]: - x[33] + r[33] <= 0
 mccormick2[34]: - x[34] + r[34] <= 0
 mccormick2[35]: - x[35] + r[35] <= 0
 mccormick2[36]: - x[36] + r[36] <= 0
 mccormick2[37]: - x[37] + r[37] <= 0
 mccormick2[38]: - x[38] + r[38] <= 0
 mccormick2[39]: - x[39] + r[39] <= 0
 mccormick2[40]: - x[40] + r[40] <= 0
 mccormick2[41]: - x[41] + r[41] <= 0
 mccormick2[42]: - x[42] + r[42] <= 0
 mccormick2[43]: - x[43] + r[43] <= 0
 mccormick2[44]: - x[44] + r[44] <= 0
 mccormick2[45]: - x[45] + r[45] <= 0
 mccormick2[46]: - x[46] + r[46] <= 0
 mccormick2[47]: - x[47] + r[47] <= 0
 mccormick2[48]: - x[48] + r[48] <= 0
 mccormick2[49]: - x[49] + r[49] <= 0
 mccormick3[0]: x[0] + u[0] - r[0] <= 1
 mccormick3[1]: x[1] + u[1] - r[1] <= 1
 mccormick3[2]: x[2] + u[2] - r[2] <= 1
 mccormick3[3]: x[3] + u[3] - r[3] <= 1
 mccormick3[4]: x[4] + u[4] - r[4] <= 1
 mccormick3[5]: x[5] + u[5] - r[5] <= 1
 mccormick3[6]: x[6] + u[6] - r[6] <= 1
 mccormick3[7]: x[7] + u[7] - r[7] <= 1
 mccormick3[8]: x[8] + u[8] - r[8] <= 1
 mccormick3[9]: x[9] + u[9] - r[9] <= 1
 mccormick3[10]: x[10] + u[10] - r[10] <= 1
 mccormick3[11]: x[11] + u[11] - r[11] <= 1
 mccormick3[12]: x[12] + u[12] - r[12] <= 1
 mccormick3[13]: x[13] + u[13] - r[13] <= 1
 mccormick3[14]: x[14] + u[14] - r[14] <= 1
 mccormick3[15]: x[15] + u[15] - r[15] <= 1
 mccormick3[16]: x[16] + u[16] - r[16] <= 1
 mccormick3[17]: x[17] + u[17] - r[17] <= 1
 mccormick3[18]: x[18] + u[18] - r[18] <= 1
 mccormick3[19]: x[19] + u[19] - r[19] <= 1
 mccormick3[20]: x[20] + u[20] - r[20] <= 1
 mccormick3[21]: x[21] + u[21] - r[21] <= 1
 mccormick3[22]: x[22] + u[22] - r[22] <= 1
 mccormick3[23]: x[23] + u[23] - r[23] <= 1
 mccormick3[24]: x[24] + u[24] - r[24] <= 1
 mccormick3[25]: x[25] + u[25] - r[25] <= 1
 mccormick3[26]: x[26] + u[26] - r[26] <= 1
 mccormick3[27]: x[27] + u[27] - r[27] <= 1
 mccormick3[28]: x[28] + u[28] - r[28] <= 1
 mccormick3[29]: x[29] + u[29] - r[29] <= 1
 mccormick3[30]: x[30] + u[30] - r[30] <= 1
 mccormick3[31]: x[31] + u[31] - r[31] <= 1
 mccormick3[32]: x[32] + u[32] - r[32] <= 1
 mccormick3[33]: x[33] + u[33] - r[33] <= 1
 mccormick3[34]: x[34] + u[34] - r[34] <= 1
 mccormick3[35]: x[35] + u[35] - r[35] <= 1
 mccormick3[36]: x[36] + u[36] - r[36] <= 1
 mccormick3[37]: x[37] + u[37] - r[37] <= 1
 mccormick3[38]: x[38] + u[38] - r[38] <= 1
 mccormick3[39]: x[39] + u[39] - r[39] <= 1
 mccormick3[40]: x[40] + u[40] - r[40] <= 1
 mccormick3[41]: x[41] + u[41] - r[41] <= 1
 mccormick3[42]: x[42] + u[42] - r[42] <= 1
 mccormick3[43]: x[43] + u[43] - r[43] <= 1
 mccormick3[44]: x[44] + u[44] - r[44] <= 1
 mccormick3[45]: x[45] + u[45] - r[45] <= 1
 mccormick3[46]: x[46] + u[46] - r[46] <= 1
 mccormick3[47]: x[47] + u[47] - r[47] <= 1
 mccormick3[48]: x[48] + u[48] - r[48] <= 1
 mccormick3[49]: x[49] + u[49] - r[49] <= 1
Bounds
Binaries
 x[0] x[1] x[2] x[3] x[4] x[5] x[6] x[7] x[8] x[9] x[10] x[11] x[12] x[13]
 x[14] x[15] x[16] x[17] x[18] x[19] x[20] x[21] x[22] x[23] x[24] x[25]
 x[26] x[27] x[28] x[29] x[30] x[31] x[32] x[33] x[34] x[35] x[36] x[37]
 x[38] x[39] x[40] x[41] x[42] x[43] x[44] x[45] x[46] x[47] x[48] x[49]
 u[0] u[1] u[2] u[3] u[4] u[5] u[6] u[7] u[8] u[9] u[10] u[11] u[12] u[13]
 u[14] u[15] u[16] u[17] u[18] u[19] u[20] u[21] u[22] u[23] u[24] u[25]
 u[26] u[27] u[28] u[29] u[30] u[31] u[32] u[33] u[34] u[35] u[36] u[37]
 u[38] u[39] u[40] u[41] u[42] u[43] u[44] u[45] u[46] u[47] u[48] u[49]
 r[0] r[1] r[2] r[3] r[4] r[5] r[6] r[7] r[8] r[9] r[10] r[11] r[12] r[13]
 r[14] r[15] r[16] r[17] r[18] r[19] r[20] r[21] r[22] r[23] r[24] r[25]
 r[26] r[27] r[28] r[29] r[30] r[31] r[32] r[33] r[34] r[35] r[36] r[37]
 r[38] r[39] r[40] r[41] r[42] r[43] r[44] r[45] r[46] r[47] r[48] r[49]
End
