instances/knapsack/discrete/knapsack_50_6.kp
99800
50
236

63 6.3 33
31 3.1 90
9 0.9 27
22 2.2 79
99 9.9 93
61 6.1 72
48 4.8 69
23 2.3 43
40 4.0 14
33 3.3 58
67 6.7 26
50 5.0 54
75 7.5 46
19 1.9 17
36 3.6 54
72 7.2 11
100 10.0 57
11 1.1 33
60 6.0 50
53 5.3 73
28 2.8 25
19 1.9 6
35 3.5 79
66 6.6 27
76 7.6 68
99 9.9 78
85 8.5 15
47 4.7 79
1 0.1 49
14 1.4 40
13 1.3 24
79 7.9 67
79 7.9 75
100 10.0 86
51 5.1 63
32 3.2 28
51 5.1 96
52 5.2 34
15 1.5 86
98 9.8 71
70 7.0 23
81 8.1 13
65 6.5 65
69 6.9 14
26 2.6 98
86 8.6 74
21 2.1 48
29 2.9 48
2 0.2 80
19 1.9 17

70296
259

[0.12198795837092506 1.2250316003794395 1.279069674186734 0.6978073940112813 4.7295093399400105 2.758616003876603 3.705670774336131 0.2875843112749705 0.7582990234489881 0.9241006648841531 1.0538982999514466 0.9819676235670419 2.4157089096241102 2.1575815972470966 4.534309356122297 3.8216315202601123 4.633282687883368 4.326519941947729 0.9006609162225336 1.5881765936329146 1.9008693185331373 2.7653414715642897 0.7551273598243422 4.565260336095131 3.550860826734689 1.83485160490525 0.31189553725439123 4.245942553647777 2.181247690278286 3.8051227402994665 3.6157700376447215 1.3646021568357547 1.693305382138741 2.3899861649792773 0.5528045340853089 1.7210521242877481 2.879595037808702 3.3600586324471924 4.2079698970950865 3.4030317990042245 2.942499572229012 1.5311534442268762 1.7310173015281143 4.503074494653168 3.1690608810673817 3.7734290264646577 4.700570488481943 1.0104835428393528 0.05242574831129181 4.086131116130178]

[39 71 57 10 15 29 48 15 8 65 59 58 59 63 72 100 44 75 48 93 56 47 39 66 16 35 49 75 1 86 49 87 91 92 7 20 75 72 91 90 10 57 5 69 74 54 81 85 62 51]
